NAME: line_10_3
TYPE: TSP
COMMENT: line_10_3
DIMENSION: 10
EDGE_WEIGHT_TYPE: EUC_2D
NODE_COORD_SECTION
1 0.0 18.0
2 0.0 18.0
3 0.0 57.0
4 0.0 91.0
5 0.0 99.0
6 0.0 18.0
7 0.0 28.0
8 0.0 36.0
9 0.0 90.0
10 0.0 90.0
